  Job Started  at 11:20.13 26th March      2015

  Number of CPUs =     1

  Host name      = ppc

  Total number of configurations input =   1

*  Input for Configuration =   1                                               *

  Formula = Mg24O30H12X192

  Number of irreducible atoms/shells =     258

  Total number atoms/shells =     258

  Dimensionality = 3               :  Bulk

  Cartesian lattice vectors (Angstroms) :

        8.930759    0.000000    0.000000
        0.000000    5.953839    0.000000
        0.000000    0.000000   23.420000

  Cell parameters (Angstroms/Degrees):

  a =       8.9308    alpha =  90.0000
  b =       5.9538    beta  =  90.0000
  c =      23.4200    gamma =  90.0000

  Initial cell volume =        1245.295295 Angs**3

  Temperature of configuration =  0.000     K

  Pressure of configuration =         0.000 GPa

  Fractional coordinates of asymmetric unit :

   No.  Atomic       x           y          z         Charge      Occupancy
        Label      (Frac)      (Frac)     (Frac)        (e)         (Frac)
      1 Mg    c    0.578633    0.302123    0.218589     8.00000    1.000000
      2 Mg    c    0.762789    0.553684    0.312622     8.00000    1.000000
      3 Mg    c    0.078391    0.553354    0.313708     8.00000    1.000000
      4 Mg    c    0.242805    0.801983    0.220219     8.00000    1.000000
      5 Mg    c    0.078509    0.053341    0.313727     8.00000    1.000000
      6 Mg    c    0.578346    0.802044    0.218543     8.00000    1.000000
      7 Mg    c    0.764646    0.052150    0.315978     8.00000    1.000000
      8 Mg    c    0.914503    0.803499    0.220226     8.00000    1.000000
      9 Mg    c    0.392376    0.552233    0.316353     8.00000    1.000000
     10 Mg    c    0.394067    0.053759    0.312774     8.00000    1.000000
     11 Mg    c    0.242762    0.303564    0.220285     8.00000    1.000000
     12 Mg    c    0.245310    0.302458    0.038895     8.00000    1.000000
     13 Mg    c    0.245310    0.802458    0.038895     8.00000    1.000000
     14 Mg    c    0.411977    0.552458    0.128775     8.00000    1.000000
     15 Mg    c    0.578643    0.302458    0.038895     8.00000    1.000000
     16 Mg    c    0.745310    0.552458    0.128775     8.00000    1.000000
     17 Mg    c    0.911977    0.302458    0.038895     8.00000    1.000000
     18 Mg    c    0.078643    0.552458    0.128775     8.00000    1.000000
     19 Mg    c    0.411977    0.052458    0.128775     8.00000    1.000000
     20 Mg    c    0.578643    0.802458    0.038895     8.00000    1.000000
     21 Mg    c    0.745310    0.052458    0.128775     8.00000    1.000000
     22 Mg    c    0.914475    0.302009    0.220162     8.00000    1.000000
     23 Mg    c    0.078643    0.052458    0.128775     8.00000    1.000000
     24 Mg    c    0.911977    0.802458    0.038895     8.00000    1.000000
     25 O     c    0.078492    0.552780    0.218146     6.00000    1.000000
     26 O     c    0.411977    0.552458    0.038895     6.00000    1.000000
     27 O     c    0.245310    0.302458    0.128775     6.00000    1.000000
     28 O     c    0.415972    0.552297    0.221912     6.00000    1.000000
     29 O     c    0.242061    0.301936    0.308629     6.00000    1.000000
     30 O     c    0.745310    0.552458    0.038895     6.00000    1.000000
     31 O     c    0.578643    0.302458    0.128775     6.00000    1.000000
     32 O     c    0.578643    0.802458    0.128775     6.00000    1.000000
     33 O     c    0.078643    0.552458    0.038895     6.00000    1.000000
     34 O     c    0.914796    0.801909    0.308540     6.00000    1.000000
     35 O     c    0.078720    0.052788    0.218148     6.00000    1.000000
     36 O     c    0.911977    0.302458    0.128775     6.00000    1.000000
     37 O     c    0.911977    0.802458    0.128775     6.00000    1.000000
     38 O     c    0.581783    0.810464    0.317617     6.00000    1.000000
     39 O     c    0.741146    0.052266    0.221897     6.00000    1.000000
     40 O     c    0.741047    0.552580    0.221632     6.00000    1.000000
     41 O     c    0.411977    0.052458    0.038895     6.00000    1.000000
     42 O     c    0.241882    0.804159    0.308031     6.00000    1.000000
     43 O     c    0.416074    0.052526    0.221674     6.00000    1.000000
     44 O     c    0.245310    0.802458    0.128775     6.00000    1.000000
     45 O     c    0.574803    0.310712    0.317542     6.00000    1.000000
     46 O     c    0.914951    0.304125    0.307963     6.00000    1.000000
     47 O     c    0.745310    0.052458    0.038895     6.00000    1.000000
     48 O     c    0.078643    0.052458    0.038895     6.00000    1.000000
     49 O     c    0.757565    0.112387    0.403745     6.00000    1.000000
     50 O     c    0.402991    0.045866    0.405236     6.00000    1.000000
     51 O     c    0.049889    0.052280    0.409081     6.00000    1.000000
     52 O     c    0.753518    0.547187    0.405140     6.00000    1.000000
     53 O     c    0.396680    0.611408    0.404173     6.00000    1.000000
     54 O     c    0.105031    0.551945    0.409016     6.00000    1.000000
     55 H     c    0.584710    0.278854    0.358688     1.00000    1.000000
     56 H     c    0.395156    0.874639    0.412279     1.00000    1.000000
     57 H     c    0.308403    0.111374    0.417954     1.00000    1.000000
     58 H     c    0.068666    0.897103    0.421405     1.00000    1.000000
     59 H     c    0.935296    0.070960    0.411779     1.00000    1.000000
     60 H     c    0.760088    0.375955    0.412217     1.00000    1.000000
[...]
    244 X     c    0.939263    0.763593    0.315007    -2.00000    1.000000
    245 X     c    0.235354    0.811689    0.292756    -2.00000    1.000000
    246 X     c    0.433566    0.032420    0.234706    -2.00000    1.000000
    247 X     c    0.921456    0.311510    0.292684    -2.00000    1.000000
    248 X     c    0.925435    0.249007    0.311302    -2.00000    1.000000
    249 X     c    0.445677    0.030668    0.032239    -2.00000    1.000000
    250 X     c    0.242275    0.292739    0.293265    -2.00000    1.000000
    251 X     c    0.745114    0.495120    0.037221    -2.00000    1.000000
    252 X     c    0.376713    0.561577    0.220685    -2.00000    1.000000
    253 X     c    0.078651    0.995119    0.037247    -2.00000    1.000000
    254 X     c    0.412176    0.495125    0.037213    -2.00000    1.000000
    255 X     c    0.076654    0.039620    0.233075    -2.00000    1.000000
    256 X     c    0.231478    0.748991    0.311331    -2.00000    1.000000
    257 X     c    0.112779    0.531196    0.032450    -2.00000    1.000000
    258 X     c    0.078948    0.109032    0.216867    -2.00000    1.000000

  Initial Cartesian coordinates :

   No.  Atomic        x           y           z          Charge   Occupancy
        Label       (Angs)      (Angs)      (Angs)        (e)       (Frac)
      1 Mg    c     5.167635    1.798789    5.119363    8.000000    1.000000
      2 Mg    c     6.812287    3.296547    7.321596    8.000000    1.000000
      3 Mg    c     0.700087    3.294579    7.347034    8.000000    1.000000
      4 Mg    c     2.168436    4.774876    5.157527    8.000000    1.000000
      5 Mg    c     0.701142    0.317581    7.347477    8.000000    1.000000
      6 Mg    c     5.165071    4.775243    5.118276    8.000000    1.000000
      7 Mg    c     6.828865    0.310493    7.400207    8.000000    1.000000
      8 Mg    c     8.167204    4.783905    5.157687    8.000000    1.000000
      9 Mg    c     3.504219    3.287905    7.408983    8.000000    1.000000
     10 Mg    c     3.519315    0.320073    7.325178    8.000000    1.000000
     11 Mg    c     2.168046    1.807372    5.159070    8.000000    1.000000
     12 Mg    c     2.190807    1.800787    0.910916    8.000000    1.000000
     13 Mg    c     2.190807    4.777707    0.910916    8.000000    1.000000
     14 Mg    c     3.679270    3.289247    3.015906    8.000000    1.000000
     15 Mg    c     5.167723    1.800787    0.910916    8.000000    1.000000
     16 Mg    c     6.656186    3.289247    3.015906    8.000000    1.000000
     17 Mg    c     8.144649    1.800787    0.910916    8.000000    1.000000
     18 Mg    c     0.702344    3.289247    3.015906    8.000000    1.000000
     19 Mg    c     3.679270    0.312327    3.015906    8.000000    1.000000
     20 Mg    c     5.167723    4.777707    0.910916    8.000000    1.000000
     21 Mg    c     6.656186    0.312327    3.015906    8.000000    1.000000
     22 Mg    c     8.166953    1.798110    5.156200    8.000000    1.000000
     23 Mg    c     0.702344    0.312327    3.015906    8.000000    1.000000
     24 Mg    c     8.144649    4.777707    0.910916    8.000000    1.000000
     25 O     c     0.700996    3.291164    5.108979    6.000000    1.000000
     26 O     c     3.679270    3.289247    0.910916    6.000000    1.000000
     27 O     c     2.190807    1.800787    3.015906    6.000000    1.000000
     28 O     c     3.714946    3.288290    5.197171    6.000000    1.000000
     29 O     c     2.161784    1.797677    7.228097    6.000000    1.000000
     30 O     c     6.656186    3.289247    0.910916    6.000000    1.000000
     31 O     c     5.167723    1.800787    3.015906    6.000000    1.000000
     32 O     c     5.167723    4.777707    3.015906    6.000000    1.000000
     33 O     c     0.702344    3.289247    0.910916    6.000000    1.000000
     34 O     c     8.169819    4.774436    7.226003    6.000000    1.000000
     35 O     c     0.703025    0.314289    5.109016    6.000000    1.000000
     36 O     c     8.144649    1.800787    3.015906    6.000000    1.000000
     37 O     c     8.144649    4.777707    3.015906    6.000000    1.000000
     38 O     c     5.195760    4.825375    7.438586    6.000000    1.000000
     39 O     c     6.619000    0.311182    5.196831    6.000000    1.000000
     40 O     c     6.618114    3.289971    5.190624    6.000000    1.000000
     41 O     c     3.679270    0.312327    0.910916    6.000000    1.000000
     42 O     c     2.160194    4.787833    7.214094    6.000000    1.000000
     43 O     c     3.715861    0.312733    5.191598    6.000000    1.000000
     44 O     c     2.190807    4.777707    3.015906    6.000000    1.000000
     45 O     c     5.133423    1.849929    7.436837    6.000000    1.000000
     46 O     c     8.171205    1.810709    7.212495    6.000000    1.000000
     47 O     c     6.656186    0.312327    0.910916    6.000000    1.000000
     48 O     c     0.702344    0.312327    0.910916    6.000000    1.000000
     49 O     c     6.765629    0.669133    9.455707    6.000000    1.000000
     50 O     c     3.599017    0.273081    9.490625    6.000000    1.000000
     51 O     c     0.445544    0.311266    9.580679    6.000000    1.000000
     52 O     c     6.729484    3.257862    9.488380    6.000000    1.000000
     53 O     c     3.542652    3.640225    9.465725    6.000000    1.000000
     54 O     c     0.938009    3.286189    9.579147    6.000000    1.000000
     55 H     c     5.221907    1.660249    8.400463    1.000000    1.000000
[...]
           z       0.0000      0.0000     -2.0000
 206 X     x      -2.0000      0.0000      0.0000
           y       0.0000     -2.0000      0.0000
           z       0.0000      0.0000     -2.0000
 207 X     x      -2.0000      0.0000      0.0000
           y       0.0000     -2.0000      0.0000
           z       0.0000      0.0000     -2.0000
 208 X     x      -2.0000      0.0000      0.0000
           y       0.0000     -2.0000      0.0000
           z       0.0000      0.0000     -2.0000
 209 X     x      -2.0000      0.0000      0.0000
           y       0.0000     -2.0000      0.0000
           z       0.0000      0.0000     -2.0000
 210 X     x      -2.0000      0.0000      0.0000
           y       0.0000     -2.0000      0.0000
           z       0.0000      0.0000     -2.0000
 211 X     x      -2.0000      0.0000      0.0000
           y       0.0000     -2.0000      0.0000
           z       0.0000      0.0000     -2.0000
 212 X     x      -2.0000      0.0000      0.0000
           y       0.0000     -2.0000      0.0000
           z       0.0000      0.0000     -2.0000
 213 X     x      -2.0000      0.0000      0.0000
           y       0.0000     -2.0000      0.0000
           z       0.0000      0.0000     -2.0000
 214 X     x      -2.0000      0.0000      0.0000
           y       0.0000     -2.0000      0.0000
           z       0.0000      0.0000     -2.0000
 215 X     x      -2.0000      0.0000      0.0000
           y       0.0000     -2.0000      0.0000
           z       0.0000      0.0000     -2.0000
 216 X     x      -2.0000      0.0000      0.0000
           y       0.0000     -2.0000      0.0000
           z       0.0000      0.0000     -2.0000
 217 X     x      -2.0000      0.0000      0.0000
           y       0.0000     -2.0000      0.0000
           z       0.0000      0.0000     -2.0000
 218 X     x      -2.0000      0.0000      0.0000
           y       0.0000     -2.0000      0.0000
           z       0.0000      0.0000     -2.0000
 219 X     x      -2.0000      0.0000      0.0000
           y       0.0000     -2.0000      0.0000
           z       0.0000      0.0000     -2.0000
 220 X     x      -2.0000      0.0000      0.0000
           y       0.0000     -2.0000      0.0000
           z       0.0000      0.0000     -2.0000
 221 X     x      -2.0000      0.0000      0.0000
           y       0.0000     -2.0000      0.0000
           z       0.0000      0.0000     -2.0000
 222 X     x      -2.0000      0.0000      0.0000
           y       0.0000     -2.0000      0.0000
           z       0.0000      0.0000     -2.0000
 223 X     x      -2.0000      0.0000      0.0000
           y       0.0000     -2.0000      0.0000
           z       0.0000      0.0000     -2.0000
 224 X     x      -2.0000      0.0000      0.0000
           y       0.0000     -2.0000      0.0000
           z       0.0000      0.0000     -2.0000
 225 X     x      -2.0000      0.0000      0.0000
           y       0.0000     -2.0000      0.0000
           z       0.0000      0.0000     -2.0000
 226 X     x      -2.0000      0.0000      0.0000
           y       0.0000     -2.0000      0.0000
           z       0.0000      0.0000     -2.0000
 227 X     x      -2.0000      0.0000      0.0000
           y       0.0000     -2.0000      0.0000
           z       0.0000      0.0000     -2.0000
 228 X     x      -2.0000      0.0000      0.0000
           y       0.0000     -2.0000      0.0000
           z       0.0000      0.0000     -2.0000
 229 X     x      -2.0000      0.0000      0.0000
           y       0.0000     -2.0000      0.0000
           z       0.0000      0.0000     -2.0000
 230 X     x      -2.0000      0.0000      0.0000
           y       0.0000     -2.0000      0.0000
           z       0.0000      0.0000     -2.0000
 231 X     x      -2.0000      0.0000      0.0000
           y       0.0000     -2.0000      0.0000
           z       0.0000      0.0000     -2.0000
 232 X     x      -2.0000      0.0000      0.0000
           y       0.0000     -2.0000      0.0000
           z       0.0000      0.0000     -2.0000
 233 X     x      -2.0000      0.0000      0.0000
           y       0.0000     -2.0000      0.0000
           z       0.0000      0.0000     -2.0000
 234 X     x      -2.0000      0.0000      0.0000
           y       0.0000     -2.0000      0.0000
           z       0.0000      0.0000     -2.0000
 235 X     x      -2.0000      0.0000      0.0000
           y       0.0000     -2.0000      0.0000
           z       0.0000      0.0000     -2.0000
 236 X     x      -2.0000      0.0000      0.0000
           y       0.0000     -2.0000      0.0000
           z       0.0000      0.0000     -2.0000
 237 X     x      -2.0000      0.0000      0.0000
           y       0.0000     -2.0000      0.0000
           z       0.0000      0.0000     -2.0000
 238 X     x      -2.0000      0.0000      0.0000
           y       0.0000     -2.0000      0.0000
           z       0.0000      0.0000     -2.0000
 239 X     x      -2.0000      0.0000      0.0000
           y       0.0000     -2.0000      0.0000
           z       0.0000      0.0000     -2.0000
 240 X     x      -2.0000      0.0000      0.0000
           y       0.0000     -2.0000      0.0000
           z       0.0000      0.0000     -2.0000
 241 X     x      -2.0000      0.0000      0.0000
           y       0.0000     -2.0000      0.0000
           z       0.0000      0.0000     -2.0000
 242 X     x      -2.0000      0.0000      0.0000
           y       0.0000     -2.0000      0.0000
           z       0.0000      0.0000     -2.0000
 243 X     x      -2.0000      0.0000      0.0000
           y       0.0000     -2.0000      0.0000
           z       0.0000      0.0000     -2.0000
 244 X     x      -2.0000      0.0000      0.0000
           y       0.0000     -2.0000      0.0000
           z       0.0000      0.0000     -2.0000
 245 X     x      -2.0000      0.0000      0.0000
           y       0.0000     -2.0000      0.0000
           z       0.0000      0.0000     -2.0000
 246 X     x      -2.0000      0.0000      0.0000
           y       0.0000     -2.0000      0.0000
           z       0.0000      0.0000     -2.0000
 247 X     x      -2.0000      0.0000      0.0000
           y       0.0000     -2.0000      0.0000
           z       0.0000      0.0000     -2.0000
 248 X     x      -2.0000      0.0000      0.0000
           y       0.0000     -2.0000      0.0000
           z       0.0000      0.0000     -2.0000
 249 X     x      -2.0000      0.0000      0.0000
           y       0.0000     -2.0000      0.0000
           z       0.0000      0.0000     -2.0000
 250 X     x      -2.0000      0.0000      0.0000
           y       0.0000     -2.0000      0.0000
           z       0.0000      0.0000     -2.0000
 251 X     x      -2.0000      0.0000      0.0000
           y       0.0000     -2.0000      0.0000
           z       0.0000      0.0000     -2.0000
 252 X     x      -2.0000      0.0000      0.0000
           y       0.0000     -2.0000      0.0000
           z       0.0000      0.0000     -2.0000
 253 X     x      -2.0000      0.0000      0.0000
           y       0.0000     -2.0000      0.0000
           z       0.0000      0.0000     -2.0000
 254 X     x      -2.0000      0.0000      0.0000
           y       0.0000     -2.0000      0.0000
           z       0.0000      0.0000     -2.0000
 255 X     x      -2.0000      0.0000      0.0000
           y       0.0000     -2.0000      0.0000
           z       0.0000      0.0000     -2.0000
 256 X     x      -2.0000      0.0000      0.0000
           y       0.0000     -2.0000      0.0000
           z       0.0000      0.0000     -2.0000
 257 X     x      -2.0000      0.0000      0.0000
           y       0.0000     -2.0000      0.0000
           z       0.0000      0.0000     -2.0000
 258 X     x      -2.0000      0.0000      0.0000
           y       0.0000     -2.0000      0.0000
           z       0.0000      0.0000     -2.0000

  Elastic Constant Matrix: (Units=GPa)

  Indices      1         2         3         4         5         6
       1  ************************************************************
       2  ****************************************70122.7495**********
       3  86943.1433**************************************************
       4  ************************************************************
       5  ************************************************************
       6  ************************************************************

  Elastic Compliance Matrix: (Units=1/GPa)

  Indices      1         2         3         4         5         6
       1    0.000001  0.000000  0.000000 -0.000000 -0.000000 -0.000000
       2    0.000000  0.000000 -0.000000  0.000000  0.000000 -0.000000
       3   -0.000000 -0.000000 -0.000000 -0.000000  0.000000 -0.000000
       4   -0.000001  0.000000 -0.000000 -0.000001 -0.000000  0.000000
       5    0.000000 -0.000000  0.000000  0.000000 -0.000000 -0.000000
       6    0.000000 -0.000000 -0.000000  0.000000 -0.000000  0.000001

  Mechanical properties :

  Convention :                    Reuss         Voigt         Hill
  Bulk  Modulus (GPa)     = 1149683.00556  -65300.18418  542191.41069
  Shear Modulus (GPa)     = *************  -81419.91615 *************
  Velocity S-wave (km/s)  =   -3187.69623    -238.26276   -2260.32922
  Velocity P-wave (km/s)  =    3570.28558     348.16954    2536.54895
  Compressibility (1/GPa) =    0.00000087
  Stress axis :                     x             y             z
  Youngs Moduli (GPa)     = 1544554.68285 3518738.36883 *************
  Poissons Ratio (x)      =                    -0.49118       0.03962
  Poissons Ratio (y)      =      -0.21561                    -0.15768
  Poissons Ratio (z)      =      -0.02012       0.18244

  Piezoelectric Strain Matrix: (Units=C/m**2)

  Indices      1         2         3         4         5         6
       x     0.65864  -0.33382  -0.45993  -0.27317   0.49381   0.46603
       y    -0.72934   0.82363   0.33176   0.39473  -0.45934   0.46522
       z    -0.12437  -2.80358   4.21951  -0.53754   1.17191  -0.99742

  Piezoelectric Stress Matrix: (Units=10**-11 C/N)

  Indices      1         2         3         4         5         6
       x     0.00004   0.00000   0.00002  -0.00002  -0.00003   0.00000
       y    -0.00004  -0.00000  -0.00002   0.00004   0.00000   0.00005
       z    -0.00004  -0.00009  -0.00010  -0.00003  -0.00002  -0.00014

  Static dielectric constant tensor :

              x         y         z
       x     0.15019  -0.00512  -0.06283
       y    -0.00512   0.06193   0.08230
       z    -0.06283   0.08230   2.01122

  Static refractive indices :

    1 =    0.24165      2 =    0.38488      3 =    1.42015

  Time to end of properties =       2.5776 seconds

  Electrostatic potential at atomic positions :

 Site  Atomic      Potential                Derivatives (V/Angs)
 No.   Label          (V)                 x           y           z
     1 Mg    c    -23.596426       ************************************
     2 Mg    c    -23.219041       ************************************
     3 Mg    c    -24.189631       ************************************
     4 Mg    c    -24.339334       ************************************
     5 Mg    c    -24.176691       ************************************
     6 Mg    c    -22.906498       ************************************
     7 Mg    c    -23.715230       ************************************
     8 Mg    c    -24.280827       ************************************
     9 Mg    c    -23.708482       ************************************
    10 Mg    c    -23.208571       ************************************
    11 Mg    c    -25.028016       ************************************
    12 Mg    c    -23.565208       ************************************
    13 Mg    c    -23.554816       ************************************
    14 Mg    c    -23.973727       ************************************
    15 Mg    c    -23.687476       ************************************
    16 Mg    c    -24.163376       ************************************
    17 Mg    c    -23.456012       ************************************
    18 Mg    c    -24.891820       ************************************
    19 Mg    c    -23.984317       ************************************
    20 Mg    c    -23.457504       ************************************
    21 Mg    c    -23.827420       ************************************
    22 Mg    c    -25.109295       ************************************
    23 Mg    c    -24.447846       ************************************
    24 Mg    c    -23.669131       ************************************
    25 O     c   -303.555424           2.895482   63.009351   11.619478
    26 O     c   -301.393975          -0.302063   51.110781  -14.920864
    27 O     c   -303.283128          14.271784   64.054552   -4.295671
    28 O     c   -301.839525           7.168484   62.411941    8.455075
    29 O     c   -300.309215           2.906123  -20.296384    6.871136
    30 O     c   -301.408989           0.292870   50.643231  -14.895076
    31 O     c   -303.131004           0.320984  -62.712634  -15.549726
    32 O     c   -303.005349          -2.299464  -62.584357  -15.577600
    33 O     c   -301.467520           0.027075  -51.394203  -15.812150
    34 O     c   -300.126937          -2.974395  -19.704969    6.893481
    35 O     c   -303.526965          -1.822642  -63.386730   11.531667
    36 O     c   -303.255363         -14.368220  -64.510834   -5.106781
    37 O     c   -303.186096         -14.406472   64.511343   -4.267981
    38 O     c   -282.508824          -6.271330  -68.179755   93.240802
    39 O     c   -301.984866          -6.504176  -63.401709    8.608979
    40 O     c   -301.857433          -9.783973   67.539365    2.399594
    41 O     c   -301.368237          -0.259875  -51.050825  -14.943084
    42 O     c   -299.094625           3.126120   15.340960    5.099274
    43 O     c   -301.984398           9.709816  -68.080582    2.256459
    44 O     c   -303.160504          14.423101   64.138469   -4.872841
    45 O     c   -282.641044           9.123274  -69.570370   92.466461
    46 O     c   -299.249041          -3.235673   14.795017    5.319346
    47 O     c   -301.365979           0.202081   50.619038  -14.868848
    48 O     c   -301.399370           0.033847   51.418755  -15.689074
    49 O     c   -269.041360         -55.027911  -67.677696   65.885903
    50 O     c   -262.606410        -134.526207  -59.939791   17.432500
    51 O     c   -260.771956         -83.403108  -97.488181   28.192982
    52 O     c   -262.593814         133.712189  -61.853524   17.261862
    53 O     c   -268.741836          54.082975  -67.030034   66.015669
    54 O     c   -260.815145          83.121237  -96.745362   28.506061
    55 H     c    -41.130285           9.062191  -19.264813   93.519390
    56 H     c    -35.007533          -1.842368  -54.477467    8.899887
    57 H     c    -41.213575         -85.394576   43.686279   29.267686
    58 H     c    -40.282307          18.491186  -88.836641   25.705896
    59 H     c    -35.089811         -56.667444    7.618134    2.687966
    60 H     c    -35.059660           1.241613  -54.871372    9.010544
[...]
   244 X     c    122.269108        -311.975737  323.788803 -213.509512
   245 X     c    111.847448          67.475657  -48.784322  430.748095
   246 X     c    114.441153        -193.057148  134.905627 -380.157483
   247 X     c    111.628592         -67.221672  -47.838747  431.234064
   248 X     c    120.505616        -127.375566  468.344140 -104.019080
   249 X     c    113.746512        -377.716204  149.780439  193.757650
   250 X     c    112.028242          -4.846905   60.191953  437.696172
   251 X     c    121.335621           2.649948  513.691660   55.545679
   252 X     c    116.707855         466.074372  -58.017650   40.722801
   253 X     c    121.232256          -0.102815  514.470194   54.870693
   254 X     c    121.193673          -2.674430  514.174122   55.833376
   255 X     c    115.788556          23.830669   88.782631 -453.356605
   256 X     c    120.674951         126.501913  469.350347 -102.983216
   257 X     c    113.656986        -382.154776  145.617601  187.471605
   258 X     c    124.829457          -3.614226 -542.812658   51.938790

  Total time to end of lattice properties =       6.4110 s

  Timing analysis for GULP :

  Task / Subroutine                                          Time (Seconds)
  Calculation of reciprocal space energy and derivatives          4.3963
  Calculation of real space energy and derivatives                1.3998

  Job Finished at 11:20.20 26th March      2015